c
c start with comments
c
p cnf 27 15
-18 -18 -34 -34 0
-22 -12 0
-14 10 -2 -5 0
7 24 7 0
27 2 0
-13 25 0
19 4 0
-20 -20 0
6 -16 26 -10 -28 0
8 12 0
28 -8 18 17 26 -11 0
-7 -7 -30 -5 0
15 31 31 0
22 -24 34 -10 0
-25 -5 22 -10 -29 0